NAME          ClpDefau
ROWS
 N  OBJROW
 L  R_128_0
 L  R_128_1
 L  R_128_2
 L  R_128_3
 L  R_128_4
 L  R_128_5
 L  R_128_6
 L  R_128_7
 L  R_128_8
 L  R_128_9
 L  R_128_10
 L  R_128_11
 L  R_128_12
 L  R_128_13
 L  R_128_14
 L  R_128_15
 L  R_128_16
 L  R_128_17
 L  R_128_18
 L  R_128_19
 L  R_128_20
 L  R_128_21
 L  R_128_22
 L  R_128_23
 L  R_128_24
 L  R_128_25
 L  R_128_26
 L  R_128_27
 L  R_128_28
 L  R_128_29
 L  R_128_30
 L  R_128_31
COLUMNS
    x_0       OBJROW     -1.           R_128_4   1.          
    x_0       R_128_10  3.             R_128_12  6.          
    x_0       R_128_13  9.             R_128_17  8.          
    x_0       R_128_26  7.          
    x_1       OBJROW     -2.           R_128_13  10.         
    x_1       R_128_28  6.             R_128_31  2.          
    x_2       OBJROW     -2.           R_128_0   1.          
    x_2       R_128_4   9.             R_128_5   5.          
    x_2       R_128_11  6.             R_128_14  2.          
    x_2       R_128_16  1.             R_128_18  3.          
    x_2       R_128_21  10.            R_128_22  4.          
    x_2       R_128_23  1.             R_128_24  10.         
    x_3       OBJROW     -6.           R_128_0   5.          
    x_3       R_128_8   8.             R_128_24  3.          
    x_3       R_128_25  4.          
    x_4       OBJROW     -3.           R_128_8   1.          
    x_4       R_128_10  9.             R_128_13  3.          
    x_4       R_128_15  1.             R_128_27  7.          
    x_5       OBJROW     -5.           R_128_1   2.          
    x_5       R_128_6   7.             R_128_7   5.          
    x_5       R_128_8   1.             R_128_10  8.          
    x_5       R_128_14  1.             R_128_17  8.          
    x_5       R_128_18  10.            R_128_21  6.          
    x_5       R_128_23  2.             R_128_24  10.         
    x_5       R_128_29  8.          
    x_6       OBJROW     -5.           R_128_20  6.          
    x_6       R_128_21  9.             R_128_22  7.          
    x_6       R_128_28  5.          
    x_7       OBJROW     -10.          R_128_1   5.          
    x_7       R_128_2   9.             R_128_9   3.          
    x_7       R_128_16  8.             R_128_22  5.          
    x_8       OBJROW     -4.           R_128_8   8.          
    x_8       R_128_12  2.             R_128_13  4.          
    x_8       R_128_18  9.             R_128_20  10.         
    x_8       R_128_24  7.             R_128_27  4.          
    x_9       OBJROW     -10.          R_128_2   10.         
    x_9       R_128_8   2.             R_128_18  8.          
    x_9       R_128_22  9.             R_128_24  1.          
    x_10      OBJROW     -1.           R_128_2   6.          
    x_10      R_128_9   4.             R_128_21  7.          
    x_10      R_128_30  8.          
    x_11      OBJROW     -10.          R_128_2   4.          
    x_11      R_128_6   3.             R_128_30  6.          
    x_12      OBJROW     -3.           R_128_0   3.          
    x_12      R_128_4   3.             R_128_16  6.          
    x_12      R_128_22  6.             R_128_31  3.          
    x_13      OBJROW     -7.           R_128_0   2.          
    x_13      R_128_3   9.             R_128_5   10.         
    x_13      R_128_8   8.             R_128_13  9.          
    x_13      R_128_21  2.             R_128_24  9.          
    x_13      R_128_26  5.          
    x_14      OBJROW     -7.           R_128_0   7.          
    x_14      R_128_2   8.             R_128_3   8.          
    x_14      R_128_7   9.             R_128_9   9.          
    x_14      R_128_15  8.             R_128_16  9.          
    x_14      R_128_17  2.             R_128_31  4.          
    x_15      OBJROW     -9.           R_128_0   4.          
    x_15      R_128_16  9.             R_128_20  3.          
    x_15      R_128_25  4.             R_128_28  4.          
    x_15      R_128_30  9.          
RHS
    RHS       R_128_0   6.             R_128_1   18.         
    RHS       R_128_2   13.            R_128_3   10.         
    RHS       R_128_4   9.             R_128_5   14.         
    RHS       R_128_6   12.            R_128_7   20.         
    RHS       R_128_8   6.             R_128_9   17.         
    RHS       R_128_10  17.            R_128_11  5.          
    RHS       R_128_12  18.            R_128_13  13.         
    RHS       R_128_14  7.             R_128_15  12.         
    RHS       R_128_16  4.             R_128_17  10.         
    RHS       R_128_18  17.            R_128_19  14.         
    RHS       R_128_20  12.            R_128_21  21.         
    RHS       R_128_22  16.            R_128_23  20.         
    RHS       R_128_24  10.            R_128_25  17.         
    RHS       R_128_26  8.             R_128_27  9.          
    RHS       R_128_28  18.            R_128_29  18.         
    RHS       R_128_30  15.            R_128_31  16.         
BOUNDS
 UI BOUND     x_0       10.         
 UI BOUND     x_1       10.         
 UI BOUND     x_2       10.         
 UI BOUND     x_3       10.         
 UI BOUND     x_4       10.         
 UI BOUND     x_5       10.         
 UI BOUND     x_6       10.         
 UI BOUND     x_7       10.         
 UI BOUND     x_8       10.         
 UI BOUND     x_9       10.         
 UI BOUND     x_10      10.         
 UI BOUND     x_11      10.         
 UI BOUND     x_12      10.         
 UI BOUND     x_13      10.         
 UI BOUND     x_14      10.         
 UI BOUND     x_15      10.         
ENDATA
